c File: instances/12_0.45_2.col
c
c Description: Random graph of size 12 vertices and P(0.44999999999999996) of edges between any two vertices.
p col 12 66
e 1 2
e 1 3
e 1 9
e 1 10
e 1 11
e 2 3
e 2 5
e 2 7
e 2 8
e 2 10
e 2 11
e 3 4
e 3 6
e 3 10
e 3 11
e 3 12
e 4 5
e 4 6
e 4 9
e 4 12
e 5 6
e 5 9
e 6 7
e 6 11
e 7 11
e 7 12
e 9 10
e 9 11
e 9 12
e 10 12